NAME : 11.80763.tour
COMMENT : Length = 80763
COMMENT : Found by LKH-3 [Keld Helsgaun] Thu Jun 19 18:16:16 2025
TYPE : TOUR
DIMENSION : 100
TOUR_SECTION
1
21
66
26
28
7
12
8
5
25
22
60
16
13
76
71
69
96
100
90
85
81
87
3
50
52
92
32
6
38
78
35
33
99
86
51
42
93
59
84
36
15
56
31
45
53
39
11
98
24
37
10
79
4
23
18
72
40
62
44
43
75
17
68
57
55
9
70
83
27
54
80
19
2
73
20
77
89
91
34
88
49
64
58
48
74
94
14
29
46
30
63
97
67
65
41
47
61
95
82
-1
EOF
